NAME          
ROWS
 N  OBJ
 L  c1
COLUMNS
    MARKER    'MARKER'                 'INTORG'
    x[1]      c1        444
    x[1]      OBJ       -413
    x[2]      c1        928
    x[2]      OBJ       -914
    x[3]      c1        68
    x[3]      OBJ       -41
    x[4]      c1        590
    x[4]      OBJ       -493
    x[5]      c1        46
    x[5]      OBJ       -26
    x[6]      c1        876
    x[6]      OBJ       -951
    x[7]      c1        909
    x[7]      OBJ       -870
    x[8]      c1        31
    x[8]      OBJ       -52
    x[9]      c1        992
    x[9]      OBJ       -965
    x[10]     c1        704
    x[10]     OBJ       -661
    x[11]     c1        530
    x[11]     OBJ       -628
    x[12]     c1        359
    x[12]     OBJ       -437
    x[13]     c1        74
    x[13]     OBJ       -174
    x[14]     c1        463
    x[14]     OBJ       -365
    x[15]     c1        284
    x[15]     OBJ       -324
    x[16]     c1        261
    x[16]     OBJ       -186
    x[17]     c1        811
    x[17]     OBJ       -786
    x[18]     c1        134
    x[18]     OBJ       -226
    x[19]     c1        -46
    x[19]     OBJ       -26
    x[20]     c1        113
    x[20]     OBJ       -138
    x[21]     c1        580
    x[21]     OBJ       -559
    x[22]     c1        695
    x[22]     OBJ       -631
    x[23]     c1        25
    x[23]     OBJ       -67
    x[24]     c1        71
    x[24]     OBJ       -130
    x[25]     c1        335
    x[25]     OBJ       -291
    x[26]     c1        419
    x[26]     OBJ       -388
    x[27]     c1        911
    x[27]     OBJ       -916
    x[28]     c1        110
    x[28]     OBJ       -92
    x[29]     c1        115
    x[29]     OBJ       -175
    x[30]     c1        153
    x[30]     OBJ       -226
    x[31]     c1        463
    x[31]     OBJ       -367
    x[32]     c1        366
    x[32]     OBJ       -445
    x[33]     c1        926
    x[33]     OBJ       -935
    x[34]     c1        945
    x[34]     OBJ       -856
    x[35]     c1        815
    x[35]     OBJ       -834
    x[36]     c1        568
    x[36]     OBJ       -600
    x[37]     c1        43
    x[37]     OBJ       -48
    x[38]     c1        208
    x[38]     OBJ       -174
    x[39]     c1        806
    x[39]     OBJ       -733
    x[40]     c1        494
    x[40]     OBJ       -594
    x[41]     c1        993
    x[41]     OBJ       -962
    x[42]     c1        555
    x[42]     OBJ       -546
    x[43]     c1        807
    x[43]     OBJ       -833
    x[44]     c1        354
    x[44]     OBJ       -411
    x[45]     c1        449
    x[45]     OBJ       -379
    x[46]     c1        386
    x[46]     OBJ       -386
    x[47]     c1        225
    x[47]     OBJ       -232
    x[48]     c1        640
    x[48]     OBJ       -680
    x[49]     c1        359
    x[49]     OBJ       -405
    x[50]     c1        564
    x[50]     OBJ       -472
RHS
    rhs       c1        11476
RANGES
BOUNDS
 LO bounds    x[1]      0
 PL bounds    x[1]
 LO bounds    x[2]      0
 PL bounds    x[2]
 LO bounds    x[3]      0
 PL bounds    x[3]
 LO bounds    x[4]      0
 PL bounds    x[4]
 LO bounds    x[5]      0
 PL bounds    x[5]
 LO bounds    x[6]      0
 PL bounds    x[6]
 LO bounds    x[7]      0
 PL bounds    x[7]
 LO bounds    x[8]      0
 PL bounds    x[8]
 LO bounds    x[9]      0
 PL bounds    x[9]
 LO bounds    x[10]     0
 PL bounds    x[10]
 LO bounds    x[11]     0
 PL bounds    x[11]
 LO bounds    x[12]     0
 PL bounds    x[12]
 LO bounds    x[13]     0
 PL bounds    x[13]
 LO bounds    x[14]     0
 PL bounds    x[14]
 LO bounds    x[15]     0
 PL bounds    x[15]
 LO bounds    x[16]     0
 PL bounds    x[16]
 LO bounds    x[17]     0
 PL bounds    x[17]
 LO bounds    x[18]     0
 PL bounds    x[18]
 LO bounds    x[19]     0
 PL bounds    x[19]
 LO bounds    x[20]     0
 PL bounds    x[20]
 LO bounds    x[21]     0
 PL bounds    x[21]
 LO bounds    x[22]     0
 PL bounds    x[22]
 LO bounds    x[23]     0
 PL bounds    x[23]
 LO bounds    x[24]     0
 PL bounds    x[24]
 LO bounds    x[25]     0
 PL bounds    x[25]
 LO bounds    x[26]     0
 PL bounds    x[26]
 LO bounds    x[27]     0
 PL bounds    x[27]
 LO bounds    x[28]     0
 PL bounds    x[28]
 LO bounds    x[29]     0
 PL bounds    x[29]
 LO bounds    x[30]     0
 PL bounds    x[30]
 LO bounds    x[31]     0
 PL bounds    x[31]
 LO bounds    x[32]     0
 PL bounds    x[32]
 LO bounds    x[33]     0
 PL bounds    x[33]
 LO bounds    x[34]     0
 PL bounds    x[34]
 LO bounds    x[35]     0
 PL bounds    x[35]
 LO bounds    x[36]     0
 PL bounds    x[36]
 LO bounds    x[37]     0
 PL bounds    x[37]
 LO bounds    x[38]     0
 PL bounds    x[38]
 LO bounds    x[39]     0
 PL bounds    x[39]
 LO bounds    x[40]     0
 PL bounds    x[40]
 LO bounds    x[41]     0
 PL bounds    x[41]
 LO bounds    x[42]     0
 PL bounds    x[42]
 LO bounds    x[43]     0
 PL bounds    x[43]
 LO bounds    x[44]     0
 PL bounds    x[44]
 LO bounds    x[45]     0
 PL bounds    x[45]
 LO bounds    x[46]     0
 PL bounds    x[46]
 LO bounds    x[47]     0
 PL bounds    x[47]
 LO bounds    x[48]     0
 PL bounds    x[48]
 LO bounds    x[49]     0
 PL bounds    x[49]
 LO bounds    x[50]     0
 PL bounds    x[50]
ENDATA
